c "821184.clq"
p edge 80 304
e 1 5
e 1 6
e 1 7
e 1 8
e 1 17
e 1 22
e 1 23
e 1 24
e 1 31
e 1 37
e 1 38
e 1 40
e 1 47
e 1 50
e 1 53
e 1 62
e 1 76
e 2 5
e 2 38
e 2 46
e 2 66
e 3 5
e 3 6
e 3 9
e 3 12
e 3 13
e 3 20
e 3 29
e 3 31
e 3 34
e 3 46
e 3 47
e 3 52
e 3 57
e 3 66
e 3 69
e 3 71
e 3 72
e 3 76
e 4 5
e 4 6
e 4 7
e 4 8
e 4 9
e 4 10
e 4 11
e 4 13
e 4 14
e 4 15
e 4 16
e 4 19
e 4 21
e 4 23
e 4 25
e 4 27
e 4 32
e 4 33
e 4 34
e 4 38
e 4 42
e 4 43
e 4 52
e 4 54
e 4 58
e 4 61
e 4 63
e 4 66
e 4 79
e 5 6
e 5 7
e 5 8
e 5 10
e 5 12
e 5 13
e 5 15
e 5 17
e 5 18
e 5 20
e 5 26
e 5 29
e 5 34
e 5 36
e 5 39
e 5 52
e 5 55
e 5 57
e 5 66
e 5 73
e 6 7
e 6 10
e 6 11
e 6 13
e 6 16
e 6 18
e 6 19
e 6 20
e 6 24
e 6 28
e 6 36
e 6 40
e 6 44
e 6 55
e 6 69
e 6 73
e 7 8
e 7 9
e 7 10
e 7 11
e 7 14
e 7 15
e 7 21
e 7 25
e 7 28
e 7 29
e 7 33
e 7 43
e 7 48
e 7 74
e 7 80
e 8 9
e 8 11
e 8 12
e 8 21
e 8 26
e 8 35
e 8 51
e 8 55
e 8 60
e 8 79
e 9 26
e 9 58
e 9 65
e 10 14
e 10 17
e 10 18
e 10 19
e 10 20
e 10 22
e 10 26
e 10 30
e 10 33
e 10 37
e 10 38
e 10 39
e 10 42
e 10 45
e 10 54
e 10 73
e 11 12
e 11 24
e 11 27
e 11 30
e 11 37
e 11 52
e 12 14
e 12 16
e 12 36
e 12 42
e 12 47
e 12 48
e 12 70
e 13 16
e 13 27
e 13 28
e 13 39
e 13 50
e 13 53
e 13 54
e 14 15
e 14 22
e 14 32
e 14 41
e 14 49
e 14 57
e 14 71
e 14 75
e 15 17
e 15 18
e 15 23
e 15 25
e 15 28
e 15 32
e 15 40
e 15 78
e 15 80
e 16 30
e 16 44
e 16 56
e 16 60
e 16 62
e 16 64
e 16 72
e 17 53
e 17 64
e 18 19
e 18 21
e 18 25
e 18 27
e 18 36
e 18 40
e 18 44
e 18 48
e 18 50
e 18 61
e 19 23
e 19 59
e 19 63
e 19 73
e 19 74
e 20 24
e 20 35
e 20 51
e 20 61
e 21 22
e 21 30
e 21 31
e 21 65
e 21 77
e 21 78
e 22 35
e 22 41
e 22 47
e 22 48
e 22 56
e 23 29
e 23 37
e 23 41
e 23 46
e 23 67
e 23 68
e 23 80
e 24 67
e 24 68
e 24 77
e 24 79
e 25 41
e 25 45
e 25 56
e 25 63
e 26 32
e 26 34
e 26 42
e 26 49
e 26 58
e 26 62
e 26 74
e 27 72
e 28 31
e 28 49
e 28 50
e 29 33
e 29 62
e 29 67
e 30 59
e 30 69
e 31 35
e 31 60
e 32 43
e 32 46
e 33 44
e 33 77
e 34 43
e 34 56
e 36 58
e 36 59
e 37 39
e 37 49
e 37 57
e 37 69
e 38 51
e 38 59
e 38 77
e 39 75
e 40 70
e 40 71
e 41 45
e 41 64
e 42 51
e 42 53
e 42 55
e 42 68
e 42 70
e 42 72
e 42 76
e 42 78
e 43 45
e 43 64
e 43 65
e 44 60
e 44 61
e 44 67
e 44 70
e 45 54
e 46 75
e 48 71
e 49 75
e 51 63
e 52 68
e 53 65
e 56 79
e 57 80
e 68 76
e 69 74
e 74 78
